DIMENSION: 76
73
72
71
70
70
69
47
46
24
23
1
76
75
2
22
21
25
45
44
48
68
67
50
49
53
43
28
27
26
29
30
31
20
5
4
3
6
7
8
9
10
19
32
33
42
54
52
51
66
65
56
55
58
57
59
60
39
38
18
17
11
12
13
14
74
15
16
37
36
35
34
40
41
61
62
63
64
